instance.sol

couenne: Optimal

Options
3
1
1
0
11
0
14
14
2
2
1
1
1
1
1
1
0
0
0
0
2
9.929972019093805e-09
objno 0 3
